(set-info :Origin "This instance was generated by: BanditFuzz-- an RL fuzzer for SMT solvers" )
(set-info :Author "Joe Scott, Fed Mora, Vijay Ganesh" )
(set-info :Contact "Joe Scott, joseph.scott@uwaterloo.ca")
(set-logic QF_BV)
(declare-const bool_0 Bool)
(declare-const bool_1 Bool)
(declare-const bool_2 Bool)
(declare-const bool_3 Bool)
(declare-const bool_4 Bool)
(declare-const bv_0 (_ BitVec 32))
(declare-const bv_1 (_ BitVec 32))
(declare-const bv_2 (_ BitVec 32))
(declare-const bv_3 (_ BitVec 32))
(declare-const bv_4 (_ BitVec 32))
(assert (bvsge (bvand (bvnor #x359d7b2d  bv_3) (bvand #xc3015773  bv_0)) (bvxnor (bvashr #x9c5d9e73  #x6b9c02d8 ) (bvadd #x56b6734d  #x93c08434 ))))
(assert (=> (bvslt (bvand bv_4 #xacdb5b27 ) (bvurem bv_2 bv_3)) (bvult (bvmul #x868b6705  #xe9d62c77 ) (bvadd bv_1 bv_2))))
(assert (bvsgt (bvashr (bvand #x9ddd348e  bv_3) (bvlshr bv_3 bv_4)) (bvsub (bvand bv_1 bv_1) (bvsdiv #x440c4325  bv_1))))
(assert (bvule (bvurem (bvashr #xe10d6062  bv_1) (bvashr #x689a67c0  #x7c55fe38 )) (bvxor (bvsrem bv_2 #xf39d599b ) (bvadd bv_1 #x6667556f ))))
(assert (bvuge (bvadd (bvsdiv #x31e7520b  #xf8360e20 ) (bvudiv bv_4 #x230bc77c )) (bvudiv (bvor #xa23608f8  bv_3) (bvshl #x27b14730  #x3db1dcc4 ))))
(check-sat)
(exit)
